solution status: optimal solution found
objective value:                                   15
x27                                                 1 	(obj:1)
x28                                                 1 	(obj:1)
x29                                                 1 	(obj:1)
x30                                                 1 	(obj:1)
x33                                                 1 	(obj:1)
x34                                                 1 	(obj:1)
x36                                                 1 	(obj:1)
x40                                                 1 	(obj:1)
x41                                                 1 	(obj:1)
x42                                                 1 	(obj:1)
x53                                                 1 	(obj:1)
x54                                                 1 	(obj:1)
x55                                                 1 	(obj:1)
x56                                                 1 	(obj:1)
x58                                                 1 	(obj:1)
one.thingy.devices[3].thingy.vs2_y                    5 	(obj:0)
one.thingy.devices[3].thingy.vs2_z                   10 	(obj:0)
one.thingy.devices[0].thingy.circulate1_y                   16 	(obj:0)
one.thingy.devices[0].thingy.circulate1_z                   17 	(obj:0)
one.thingy.devices[2].thingy.circulate1_y                    8 	(obj:0)
one.thingy.devices[2].thingy.circulate1_z                   14 	(obj:0)
one.pump_b[1].flush_y                               1 	(obj:0)
one.pump_b[1].flush_z                               6 	(obj:0)
one.thingy.devices[0].thingy.vs2_y                   12 	(obj:0)
one.thingy.devices[0].thingy.vs2_z                   19 	(obj:0)
one.thingy.devices[2].thingy.vs2_y                    9 	(obj:0)
one.thingy.devices[2].thingy.vs2_z                   14 	(obj:0)
one.thingy.devices[1].thingy.vs2_y                   11 	(obj:0)
one.thingy.devices[1].thingy.vs2_z                   17 	(obj:0)
one.thingy.devices[3].thingy.circulate1_y                    4 	(obj:0)
one.thingy.devices[3].thingy.circulate1_z                   11 	(obj:0)
one.thingy.devices[1].thingy.circulate1_y                   12 	(obj:0)
one.thingy.devices[1].thingy.circulate1_z                   17 	(obj:0)
one.pump_a[2].flush_z                               7 	(obj:0)
one.pump_b[1].hole_y                                8 	(obj:0)
one.pump_b[1].hole_z                               15 	(obj:0)
one.pump_a[2].hole_y                               12 	(obj:0)
one.pump_a[2].hole_z                               13 	(obj:0)
